(set-logic ALL)
(declare-fun i4 () Int)
(declare-fun i1 () Int)
(declare-fun i3 () Int)
(declare-fun it1231 () Int)
(declare-fun it1232 () Int)
(declare-fun i2 () Int)
(declare-fun it1233 () Int)
(declare-fun it1234 () Int)
(declare-fun it1235 () Int)
(declare-fun it1236 () Int)
(declare-fun it1237 () Int)
(declare-fun it1238 () Int)
(declare-fun it1239 () Int)
(declare-fun it1240 () Int)
(declare-fun it1241 () Int)
(declare-fun it1242 () Int)
(declare-fun it1243 () Int)
(declare-fun it1244 () Int)
(declare-fun it1245 () Int)
(declare-fun it1246 () Int)
(declare-fun it1247 () Int)
(declare-fun it1248 () Int)
(declare-fun it1267 () Int)
(declare-fun it1268 () Int)
(declare-fun it1269 () Int)
(declare-fun it1270 () Int)
(declare-fun it1271 () Int)
(declare-fun it1272 () Int)
(declare-fun it1273 () Int)
(declare-fun it1274 () Int)
(declare-fun it1275 () Int)
(declare-fun it1276 () Int)
(declare-fun it1277 () Int)
(declare-fun it1278 () Int)
(declare-fun it134 () Int)
(assert (and (>= (+ i3 (- 2)) 0) (= (+ i1 (- 1)) 0) (>= (+ i4 (- 2)) 0)))
(assert (= (+ it1231 (- 3)) 0))
(assert (= (+ (* i2 (- 1)) it1232 (- 2)) 0))
(assert (= (+ it1233 (* i3 (- 1)) 1) 0))
(assert (= (+ (* i4 (- 1)) it1234) 0))
(assert (= (+ (* i3 (- 1)) it1235 1) 0))
(assert (= (+ it1236 (* i3 (- 2)) 2) 0))
(assert (and (>= (+ (* it1234 (- 1)) 4) 0)
     (>= (+ it1231 (- 3)) 0)
     (>= (+ (* it1231 (- 1)) 3) 0)
     (>= (+ it1234 (- 2)) 0)
     (>= (+ it1236 (* it1234 (- 1))) 0)
     (>= (+ (* it1236 (- 1)) it1234) 0)
     (>= (+ it1233 (- 1)) 0)
     (>= (+ it1233 (- 2)) 0)
     (<= (+ (* it1233 2) (* it1236 (- 1)) (- 2)) 0)
     (>= 1 0)
     (>= 0 0)))
(assert (= (+ it1237 (* it1231 (- 1))) 0))
(assert (= (+ (* it1233 (- 3)) it1238 (* it1232 (- 1)) 3) 0))
(assert (= (+ it1239 (- 1)) 0))
(assert (= (+ it1240 (* it1234 (- 1))) 0))
(assert (= (+ it1241 (- 1)) 0))
(assert (= (+ it1242 (- 2)) 0))
(assert (let ((a!1 (>= (+ (+ it1240 (* it1242 (- 1))) (- 1)) 0)))
  (and (= (+ it1237 (- 3)) 0) a!1 (>= (+ it1240 (* it1242 (- 1))) 0))))
(assert (= (+ it1243 (- 4)) 0))
(assert (= (+ it1244 (* it1238 (- 1)) (- 1)) 0))
(assert (= (+ (* it1239 (- 1)) it1245) 0))
(assert (= (+ it1246 (* it1240 (- 1))) 0))
(assert (= (+ it1247 (* it1241 (- 1))) 0))
(assert (= (+ it1248 (* it1242 (- 1)) (- 1)) 0))
(assert (let ((a!1 (>= (+ (+ it1246 (* it1245 (- 2))) (- 2)) 0))
      (a!2 (>= (+ (+ it1246 (* it1245 (- 2))) (- 1)) 0)))
  (and a!1
       (>= (+ it1246 (- 2)) 0)
       (>= (+ it1246 (- 3)) 0)
       (>= (+ (* it1243 (- 1)) 4) 0)
       (>= (+ (* it1245 (- 1)) 1) 0)
       a!2
       (>= (+ it1245 (- 1)) 0)
       (>= (+ it1243 (- 4)) 0)
       (>= 1 0)
       (>= 0 0))))
(assert (= (+ (* it1243 (- 1)) it1267) 0))
(assert (= (+ (* it1246 (- 3)) it1268 (* it1244 (- 1)) (* it1245 6) 3) 0))
(assert (= (+ it1269 (* it1245 (- 1))) 0))
(assert (= (+ it1270 (* it1245 (- 2)) (- 1)) 0))
(assert (= (+ it1271 (* it1245 (- 1))) 0))
(assert (= (+ it1272 (* it1245 (- 2))) 0))
(assert (and (= (+ it1269 (- 1)) 0)
     (= (+ it1267 (- 4)) 0)
     (>= (+ it1270 (- 2)) 0)
     (>= (+ it1270 (- 3)) 0)))
(assert (= (+ it1273 (- 3)) 0))
(assert (= (+ it1274 (* it1268 (- 1)) (- 2)) 0))
(assert (= (+ it1275 (* it1269 (- 1))) 0))
(assert (= (+ it1276 (* it1270 (- 1)) 1) 0))
(assert (= (+ it1277 (* it1269 (- 1))) 0))
(assert (= (+ it1278 (* it1269 (- 2))) 0))
(assert (let ((a!1 (+ (* (+ 0 it1278) (exp 2 (+ it134 (- 1))) (+ 0 (- 1)))
              (* (exp 2 it134) (+ 0 (- 1)))
              (+ 0 it1276)))
      (a!2 (>= (+ (+ (* it1278 (- 1)) it1276) (- 1)) 0)))
  (and (>= (+ it134 (- 1)) 0)
       (>= (+ (* it1278 (- 1)) it1276) 0)
       (>= (+ a!1 (+ 0 1)) (+ 0 0))
       (>= (+ a!1 (+ 0 2)) (+ 0 0))
       (>= (+ it1273 (- 3)) 0)
       (>= (+ (* it1273 (- 1)) 3) 0)
       a!2
       (>= (+ it1278 (- 1)) 0))))
(check-sat)
